unsat
((and (and (and (<= 0 (+ (* -1 b) c)) (<= 0 (+ b (* -1 c)))) (or (<= 0 (+ b (* -1 c))) (not (and (<= 0 (+ (* -1 b) c)) (<= 0 (+ b (* -1 c))))))) (and (and (<= 0 (+ (* -1 b) c)) (<= 0 (+ b (* -1 c)))) (or (<= 0 (+ (* -1 b) c)) (not (and (<= 0 (+ (* -1 b) c)) (<= 0 (+ b (* -1 c)))))))))
